NAME: random-99-28787
TYPE: TSP
COMMENT: size=99 seed=28787
DIMENSION: 200
EDGE_WEIGHT_TYPE: EUC_2D
NODE_COORD_SECTION
+0 109 421
-0 109 421
+1 518 23
-1 90 312
+2 963 154
-2 47 911
+3 964 289
-3 36 405
+4 309 736
-4 141 816
+5 815 813
-5 745 311
+6 94 575
-6 304 658
+7 367 950
-7 704 235
+8 859 327
-8 187 315
+9 956 485
-9 57 628
+10 212 116
-10 750 590
+11 210 791
-11 682 821
+12 728 345
-12 732 867
+13 128 217
-13 442 559
+14 353 772
-14 179 940
+15 40 761
-15 349 840
+16 293 971
-16 232 779
+17 335 690
-17 315 521
+18 273 249
-18 652 228
+19 292 505
-19 588 866
+20 495 602
-20 991 41
+21 761 531
-21 764 294
+22 100 913
-22 292 555
+23 147 709
-23 472 51
+24 778 291
-24 162 149
+25 138 496
-25 728 585
+26 844 714
-26 893 142
+27 283 645
-27 136 770
+28 607 998
-28 156 893
+29 201 785
-29 438 406
+30 127 471
-30 836 174
+31 734 665
-31 578 928
+32 793 867
-32 503 65
+33 965 913
-33 47 960
+34 223 535
-34 836 460
+35 741 556
-35 983 51
+36 810 481
-36 626 506
+37 366 608
-37 338 577
+38 449 803
-38 368 743
+39 834 811
-39 817 816
+40 103 617
-40 902 40
+41 354 446
-41 921 292
+42 117 541
-42 790 813
+43 190 963
-43 113 831
+44 102 950
-44 333 707
+45 528 839
-45 375 653
+46 963 183
-46 91 740
+47 901 233
-47 126 908
+48 344 960
-48 449 276
+49 665 199
-49 764 844
+50 77 707
-50 614 974
+51 869 189
-51 827 548
+52 384 493
-52 364 738
+53 726 741
-53 113 210
+54 546 366
-54 810 672
+55 263 652
-55 26 940
+56 190 968
-56 498 299
+57 204 498
-57 142 580
+58 252 879
-58 477 383
+59 321 972
-59 955 898
+60 535 359
-60 559 235
+61 264 138
-61 645 609
+62 560 423
-62 229 931
+63 382 400
-63 701 988
+64 799 920
-64 421 552
+65 424 93
-65 596 916
+66 652 920
-66 566 511
+67 568 44
-67 856 603
+68 766 869
-68 393 967
+69 115 493
-69 683 116
+70 911 969
-70 264 551
+71 473 588
-71 260 888
+72 739 236
-72 768 143
+73 178 380
-73 361 234
+74 899 77
-74 390 799
+75 537 210
-75 179 644
+76 72 88
-76 692 423
+77 130 866
-77 41 856
+78 944 190
-78 56 650
+79 260 419
-79 749 557
+80 636 256
-80 40 5
+81 575 589
-81 756 329
+82 39 662
-82 746 972
+83 688 887
-83 493 292
+84 18 476
-84 84 366
+85 74 8
-85 867 524
+86 253 494
-86 486 354
+87 913 121
-87 42 132
+88 842 522
-88 92 103
+89 329 36
-89 405 455
+90 544 64
-90 908 718
+91 266 995
-91 811 228
+92 871 596
-92 485 68
+93 589 150
-93 177 783
+94 250 767
-94 886 451
+95 430 739
-95 177 493
+96 881 863
-96 717 661
+97 282 299
-97 738 428
+98 100 258
-98 52 583
+99 32 753
-99 91 574
PRECEDENCE_SECTION
+0 -0
+1 -1
+2 -2
+3 -3
+4 -4
+5 -5
+6 -6
+7 -7
+8 -8
+9 -9
+10 -10
+11 -11
+12 -12
+13 -13
+14 -14
+15 -15
+16 -16
+17 -17
+18 -18
+19 -19
+20 -20
+21 -21
+22 -22
+23 -23
+24 -24
+25 -25
+26 -26
+27 -27
+28 -28
+29 -29
+30 -30
+31 -31
+32 -32
+33 -33
+34 -34
+35 -35
+36 -36
+37 -37
+38 -38
+39 -39
+40 -40
+41 -41
+42 -42
+43 -43
+44 -44
+45 -45
+46 -46
+47 -47
+48 -48
+49 -49
+50 -50
+51 -51
+52 -52
+53 -53
+54 -54
+55 -55
+56 -56
+57 -57
+58 -58
+59 -59
+60 -60
+61 -61
+62 -62
+63 -63
+64 -64
+65 -65
+66 -66
+67 -67
+68 -68
+69 -69
+70 -70
+71 -71
+72 -72
+73 -73
+74 -74
+75 -75
+76 -76
+77 -77
+78 -78
+79 -79
+80 -80
+81 -81
+82 -82
+83 -83
+84 -84
+85 -85
+86 -86
+87 -87
+88 -88
+89 -89
+90 -90
+91 -91
+92 -92
+93 -93
+94 -94
+95 -95
+96 -96
+97 -97
+98 -98
+99 -99
EOF
